NAME : H-n1-k1
COMMENT : (Hackathon EMTU)
TYPE : CVRP
DIMENSION : 1
EDGE_WEIGHT_TYPE : EUC_2D
CAPACITY : 10000
NODE_COORD_SECTION
1 -23.99634619050117 -46.408830682247945
DEMAND_SECTION
1 0DEPOT_SECTION
1
-1
EOF